experiments/sat_smt/run/sat-r/results/andy.res
solved=true
solvingTime=5.999232769012451171875
nActions=6