experiments/sat_smt/run/sat-r/results/andy.out
Timesteps: 1
s UNSATISFIABLE
real 0.14
user 0.02
sys 0.00
Timesteps: 2
s UNSATISFIABLE
real 0.21
user 0.05
sys 0.01
Timesteps: 3
s UNSATISFIABLE
real 0.29
user 0.12
sys 0.01
Timesteps: 4
s UNSATISFIABLE
real 0.72
user 0.57
sys 0.01
Timesteps: 5
s UNSATISFIABLE
real 2.26
user 2.11
sys 0.01
Timesteps: 6
s SATISFIABLE
real 2.14
user 1.95
sys 0.02
